12 24 9 10
20 4 5 16 5 1 12 11 20 12 11 12 6 4 14 3 20 14 1 2 15 1 2 20 
7.84 14.64 9.14 0.19 0.85 14.34 6.17 7.51 0.08 4.03 6.25 4.71 10.88 7.79 8.94 8.4 11.34 11.71 10.18 0.71 10.81 6.87 9.34 7.87 
11.01 13.03 10.25 0.73 13.89 12.68 14.6 1.41 8.18 8.99 1.52 15.88 11.09 2.85 11.35 3.27 10.99 12 6.35 12.79 4.46 13.84 6.81 15.57 
9.24 7.58 14.5 7.63 4.89 12.73 15.92 8.49 9.5 2.08 1.67 2.81 0.4 0.27 3.05 13.78 3.28 4.64 3.43 4.18 6.77 2.34 4.74 1.71 
2.09 13.76 12.77 0.46 4.03 0.67 5.15 10.4 8.68 5.97 0.25 12.24 4.05 5.27 3.73 11.5 2.19 15.51 11.44 14.14 8.96 11.03 8.92 14.77 
13.17 3.07 13.73 9.12 10.77 14.55 8.41 13.76 1.8 13.69 9.21 2.23 9.56 3.38 15.38 0.57 0.15 15.18 7.35 3.64 12.86 11.41 1.66 7.42 
11.28 6.49 5.84 2.54 1.15 9.84 8.44 10.6 2.27 9.61 14.78 15.94 0.38 7.52 10.4 12.74 5.33 1.75 0.63 15.76 13.45 10.05 9.67 11.73 
9 8.47 2.23 4.71 6.69 2.49 4.93 10.84 4.66 5.75 4.52 15.92 7.72 12.33 11.3 7.68 6.38 3.58 2.46 8.62 12.84 9.52 2.06 8.92 
7.05 5.15 7.67 9.57 12.55 5.48 11.87 3.32 10.31 15.06 1.76 10.57 0.83 2.05 10.49 9.92 2.63 12.69 5.68 7.44 15.21 8.36 8 12.97 
15.39 14.33 8.53 7.55 11.61 5.33 14.34 0.26 12.56 11.91 0.85 11.72 7.28 14.79 2.55 0.07 2.93 5.03 6.97 10.26 15.16 10.07 3.74 9.35 
8 8 8 8 8 8 8 8 8 8 8 8 8 8 8 8 8 8 8 8 8 8 8 8 
14.4 15.83 7.27 1.45 0.05 0.99 2.88 6.5 14.72 0.08 15.48 1.22 9.27 2.99 2.42 5.89 7.64 4.45 12.63 4.11 6.98 5.15 3.88 8.84 
0.32 2.22 14 4.01 1.54 13.88 10.31 6.71 12.37 2.87 2.16 0.97 7.55 14.22 7.18 2.72 14.74 7.25 12.31 3.11 11.46 13.76 14.25 13.74 
1 1 1 1 1 1 1 1 1 1 1 1 1 1 1 1 1 1 1 1 1 1 1 1 
1 1 1 1 1 1 1 1 1 1 1 1 1 1 1 1 1 1 1 1 1 1 1 1 
1 1 1 1 1 1 1 1 1 1 1 1 1 1 1 1 1 1 1 1 1 1 1 1 
1 1 1 1 1 1 1 1 1 1 1 1 1 1 1 1 1 1 1 1 1 1 1 1 
1 1 1 1 1 1 1 1 1 1 1 1 1 1 1 1 1 1 1 1 1 1 1 1 
1 1 1 1 1 1 1 1 1 1 1 1 1 1 1 1 1 1 1 1 1 1 1 1 
1 1 1 1 1 1 1 1 1 1 1 1 1 1 1 1 1 1 1 1 1 1 1 1 
1 1 1 1 1 1 1 1 1 1 1 1 1 1 1 1 1 1 1 1 1 1 1 1 
1 1 1 1 1 1 1 1 1 1 1 1 1 1 1 1 1 1 1 1 1 1 1 1 
1 1 1 1 1 1 1 1 1 1 1 1 1 1 1 1 1 1 1 1 1 1 1 1 
1 1 1 1 1 1 1 1 1 1 1 1 1 1 1 1 1 1 1 1 1 1 1 1 
1 1 1 1 1 1 1 1 1 1 1 1 1 1 1 1 1 1 1 1 1 1 1 1 
0.01 0.01 0.01 0.01 0.01 0.01 0.01 0.01 0.01 0.01 0.01 0.01 0.01 0.01 0.01 0.01 0.01 0.01 0.01 0.01 0.01 0.01 0.01 0.01 
0.02 0.02 0.02 0.02 0.02 0.02 0.02 0.02 0.02 0.02 0.02 0.02 0.02 0.02 0.02 0.02 0.02 0.02 0.02 0.02 0.02 0.02 0.02 0.02 
0.03 0.03 0.03 0.03 0.03 0.03 0.03 0.03 0.03 0.03 0.03 0.03 0.03 0.03 0.03 0.03 0.03 0.03 0.03 0.03 0.03 0.03 0.03 0.03 
0.04 0.04 0.04 0.04 0.04 0.04 0.04 0.04 0.04 0.04 0.04 0.04 0.04 0.04 0.04 0.04 0.04 0.04 0.04 0.04 0.04 0.04 0.04 0.04 
0.05 0.05 0.05 0.05 0.05 0.05 0.05 0.05 0.05 0.05 0.05 0.05 0.05 0.05 0.05 0.05 0.05 0.05 0.05 0.05 0.05 0.05 0.05 0.05 
0.06 0.06 0.06 0.06 0.06 0.06 0.06 0.06 0.06 0.06 0.06 0.06 0.06 0.06 0.06 0.06 0.06 0.06 0.06 0.06 0.06 0.06 0.06 0.06 
0.07 0.07 0.07 0.07 0.07 0.07 0.07 0.07 0.07 0.07 0.07 0.07 0.07 0.07 0.07 0.07 0.07 0.07 0.07 0.07 0.07 0.07 0.07 0.07 
0.08 0.08 0.08 0.08 0.08 0.08 0.08 0.08 0.08 0.08 0.08 0.08 0.08 0.08 0.08 0.08 0.08 0.08 0.08 0.08 0.08 0.08 0.08 0.08 
0.09 0.09 0.09 0.09 0.09 0.09 0.09 0.09 0.09 0.09 0.09 0.09 0.09 0.09 0.09 0.09 0.09 0.09 0.09 0.09 0.09 0.09 0.09 0.09 
0.1 0.1 0.1 0.1 0.1 0.1 0.1 0.1 0.1 0.1 0.1 0.1 0.1 0.1 0.1 0.1 0.1 0.1 0.1 0.1 0.1 0.1 0.1 0.1 
0.5 0.5 0.5 0.5 0.5 0.5 0.5 0.5 0.5 0.5 0.5 0.5 0.5 0.5 0.5 0.5 0.5 0.5 0.5 0.5 0.5 0.5 0.5 0.5 
1 1 1 1 1 1 1 1 1 1 1 1 1 1 1 1 1 1 1 1 1 1 1 1 
